(set-info :smt-lib-version 2.6)
(set-logic QF_NIA)
(set-info :source |
Generated by: Cristina Borralleras, Daniel Larraz, Albert Oliveras, Enric Rodriguez-Carbonell, Albert Rubio
Generated on: 2017-04-27
Generator: VeryMax
Application: Termination proving
Target solver: barcelogic
|)
(set-info :license "https://creativecommons.org/licenses/by/4.0/")
(set-info :category "industrial")
(set-info :status unknown)
(declare-fun Nl3__const_10^01 () Int)
(declare-fun Nl3__const_12^01 () Int)
(declare-fun Nl3__const_30^01 () Int)
(declare-fun Nl3__const_5^01 () Int)
(declare-fun Nl3a4^01 () Int)
(declare-fun Nl3b5^01 () Int)
(declare-fun lam0n0 () Int)
(declare-fun lam0n1 () Int)
(declare-fun lam0n2 () Int)
(declare-fun lam0n3 () Int)
(declare-fun lam0n4 () Int)
(declare-fun lam0n5 () Int)
(declare-fun lam0n6 () Int)
(declare-fun lam0n7 () Int)
(declare-fun lam0n8 () Int)
(declare-fun Nl3CT1 () Int)
(declare-fun lam1n0 () Int)
(declare-fun lam1n1 () Int)
(declare-fun lam1n2 () Int)
(declare-fun lam1n3 () Int)
(declare-fun lam1n4 () Int)
(declare-fun lam1n5 () Int)
(declare-fun lam1n6 () Int)
(declare-fun lam1n7 () Int)
(declare-fun lam1n8 () Int)
(declare-fun lam2n0 () Int)
(declare-fun lam2n1 () Int)
(declare-fun lam2n2 () Int)
(declare-fun lam2n3 () Int)
(declare-fun lam2n4 () Int)
(declare-fun lam2n5 () Int)
(declare-fun lam2n6 () Int)
(declare-fun lam2n7 () Int)
(declare-fun lam2n8 () Int)
(declare-fun lam3n0 () Int)
(declare-fun lam3n1 () Int)
(declare-fun lam3n2 () Int)
(declare-fun lam3n3 () Int)
(declare-fun lam3n4 () Int)
(declare-fun lam3n5 () Int)
(declare-fun lam3n6 () Int)
(declare-fun lam3n7 () Int)
(declare-fun lam3n8 () Int)
(declare-fun lam4n0 () Int)
(declare-fun lam4n1 () Int)
(declare-fun lam4n2 () Int)
(declare-fun lam4n3 () Int)
(declare-fun lam4n4 () Int)
(declare-fun lam4n5 () Int)
(declare-fun lam4n6 () Int)
(declare-fun lam4n7 () Int)
(declare-fun lam4n8 () Int)
(declare-fun lam5n0 () Int)
(declare-fun lam5n1 () Int)
(declare-fun lam5n2 () Int)
(declare-fun lam5n3 () Int)
(declare-fun lam5n4 () Int)
(declare-fun lam5n5 () Int)
(declare-fun lam5n6 () Int)
(declare-fun lam5n7 () Int)
(declare-fun lam5n8 () Int)
(declare-fun lam6n0 () Int)
(declare-fun lam6n1 () Int)
(declare-fun lam6n2 () Int)
(declare-fun lam6n3 () Int)
(declare-fun lam6n4 () Int)
(declare-fun lam6n5 () Int)
(declare-fun lam6n6 () Int)
(declare-fun lam6n7 () Int)
(declare-fun lam6n8 () Int)
(declare-fun lam6n9 () Int)
(declare-fun lam7n0 () Int)
(declare-fun lam7n1 () Int)
(declare-fun lam7n2 () Int)
(declare-fun lam7n3 () Int)
(declare-fun lam7n4 () Int)
(declare-fun lam7n5 () Int)
(declare-fun lam7n6 () Int)
(declare-fun lam7n7 () Int)
(declare-fun lam7n8 () Int)
(declare-fun lam7n9 () Int)
(declare-fun lam8n0 () Int)
(declare-fun lam8n1 () Int)
(declare-fun lam8n2 () Int)
(declare-fun lam8n3 () Int)
(declare-fun lam8n4 () Int)
(declare-fun lam8n7 () Int)
(declare-fun lam8n8 () Int)
(declare-fun lam8n5 () Int)
(declare-fun lam8n6 () Int)
(declare-fun lam9n0 () Int)
(declare-fun lam9n1 () Int)
(declare-fun lam9n2 () Int)
(declare-fun lam9n5 () Int)
(declare-fun lam9n6 () Int)
(declare-fun lam9n3 () Int)
(declare-fun lam9n4 () Int)
(declare-fun lam10n0 () Int)
(declare-fun lam10n1 () Int)
(declare-fun lam10n4 () Int)
(declare-fun lam10n5 () Int)
(declare-fun lam10n2 () Int)
(declare-fun lam10n3 () Int)
(declare-fun __const_10^0 () Int)
(declare-fun __const_12^0 () Int)
(declare-fun __const_30^0 () Int)
(declare-fun undef126 () Int)
(declare-fun a4^0 () Int)
(declare-fun b5^0 () Int)
(declare-fun undef129 () Int)
(declare-fun __const_5^0 () Int)
(declare-fun lam14n0 () Int)
(declare-fun lam14n1 () Int)
(declare-fun lam14n2 () Int)
(declare-fun lam14n3 () Int)
(declare-fun lam14n4 () Int)
(declare-fun lam14n5 () Int)
(declare-fun lam14n6 () Int)
(declare-fun lam14n7 () Int)
(declare-fun lam14n8 () Int)
(declare-fun lam14n9 () Int)
(declare-fun RFN1_CT () Int)
(declare-fun RFN1_a4^0 () Int)
(declare-fun RFN1_b5^0 () Int)
(declare-fun RFN1___const_10^0 () Int)
(declare-fun RFN1___const_12^0 () Int)
(declare-fun RFN1___const_5^0 () Int)
(declare-fun lam18n0 () Int)
(declare-fun lam18n1 () Int)
(declare-fun lam18n2 () Int)
(declare-fun lam18n3 () Int)
(declare-fun lam18n4 () Int)
(declare-fun lam18n5 () Int)
(declare-fun lam18n6 () Int)
(declare-fun lam18n7 () Int)
(declare-fun lam18n8 () Int)
(declare-fun lam18n9 () Int)
(declare-fun lam22n0 () Int)
(declare-fun lam22n1 () Int)
(declare-fun lam22n2 () Int)
(declare-fun lam22n3 () Int)
(declare-fun lam22n4 () Int)
(declare-fun lam22n5 () Int)
(declare-fun lam22n6 () Int)
(declare-fun lam22n7 () Int)
(declare-fun lam22n8 () Int)
(declare-fun lam22n9 () Int)
(declare-fun lam22n10 () Int)
(declare-fun lam12n0 () Int)
(declare-fun lam12n1 () Int)
(declare-fun lam12n2 () Int)
(declare-fun lam12n3 () Int)
(declare-fun lam12n4 () Int)
(declare-fun lam12n5 () Int)
(declare-fun lam12n6 () Int)
(declare-fun lam12n7 () Int)
(declare-fun lam12n8 () Int)
(declare-fun lam12n9 () Int)
(declare-fun lam13n0 () Int)
(declare-fun lam13n1 () Int)
(declare-fun lam13n2 () Int)
(declare-fun lam13n3 () Int)
(declare-fun lam13n4 () Int)
(declare-fun lam13n5 () Int)
(declare-fun lam13n6 () Int)
(declare-fun lam13n7 () Int)
(declare-fun lam13n8 () Int)
(declare-fun lam13n9 () Int)
(declare-fun lam16n0 () Int)
(declare-fun lam16n1 () Int)
(declare-fun lam16n2 () Int)
(declare-fun lam16n3 () Int)
(declare-fun lam16n4 () Int)
(declare-fun lam16n5 () Int)
(declare-fun lam16n6 () Int)
(declare-fun lam16n7 () Int)
(declare-fun lam16n8 () Int)
(declare-fun lam16n9 () Int)
(declare-fun lam17n0 () Int)
(declare-fun lam17n1 () Int)
(declare-fun lam17n2 () Int)
(declare-fun lam17n3 () Int)
(declare-fun lam17n4 () Int)
(declare-fun lam17n5 () Int)
(declare-fun lam17n6 () Int)
(declare-fun lam17n7 () Int)
(declare-fun lam17n8 () Int)
(declare-fun lam17n9 () Int)
(declare-fun lam20n0 () Int)
(declare-fun lam20n1 () Int)
(declare-fun lam20n2 () Int)
(declare-fun lam20n3 () Int)
(declare-fun lam20n4 () Int)
(declare-fun lam20n5 () Int)
(declare-fun lam20n6 () Int)
(declare-fun lam20n7 () Int)
(declare-fun lam20n8 () Int)
(declare-fun lam20n9 () Int)
(declare-fun lam20n10 () Int)
(declare-fun lam21n0 () Int)
(declare-fun lam21n1 () Int)
(declare-fun lam21n2 () Int)
(declare-fun lam21n3 () Int)
(declare-fun lam21n4 () Int)
(declare-fun lam21n5 () Int)
(declare-fun lam21n6 () Int)
(declare-fun lam21n7 () Int)
(declare-fun lam21n8 () Int)
(declare-fun lam21n9 () Int)
(declare-fun lam21n10 () Int)
(declare-fun lam11n0 () Int)
(declare-fun lam11n1 () Int)
(declare-fun lam11n2 () Int)
(declare-fun lam11n3 () Int)
(declare-fun lam11n4 () Int)
(declare-fun lam11n5 () Int)
(declare-fun lam11n6 () Int)
(declare-fun lam11n7 () Int)
(declare-fun lam11n8 () Int)
(declare-fun lam11n9 () Int)
(declare-fun lam15n0 () Int)
(declare-fun lam15n1 () Int)
(declare-fun lam15n2 () Int)
(declare-fun lam15n3 () Int)
(declare-fun lam15n4 () Int)
(declare-fun lam15n5 () Int)
(declare-fun lam15n6 () Int)
(declare-fun lam15n7 () Int)
(declare-fun lam15n8 () Int)
(declare-fun lam15n9 () Int)
(declare-fun lam19n0 () Int)
(declare-fun lam19n1 () Int)
(declare-fun lam19n2 () Int)
(declare-fun lam19n3 () Int)
(declare-fun lam19n4 () Int)
(declare-fun lam19n5 () Int)
(declare-fun lam19n6 () Int)
(declare-fun lam19n7 () Int)
(declare-fun lam19n8 () Int)
(declare-fun lam19n9 () Int)
(declare-fun lam19n10 () Int)
(assert ( and ( <= ( - 2 ) Nl3__const_10^01 ) ( <= Nl3__const_10^01 2 ) ( <= ( - 2 ) Nl3__const_12^01 ) ( <= Nl3__const_12^01 2 ) ( <= ( - 2 ) Nl3__const_30^01 ) ( <= Nl3__const_30^01 2 ) ( <= ( - 2 ) Nl3__const_5^01 ) ( <= Nl3__const_5^01 2 ) ( <= ( - 2 ) Nl3a4^01 ) ( <= Nl3a4^01 2 ) ( <= ( - 2 ) Nl3b5^01 ) ( <= Nl3b5^01 2 ) ))
(assert ( or ( and ( >= lam0n0 0 ) ( >= lam0n1 0 ) ( >= lam0n2 0 ) ( >= lam0n3 0 ) ( >= lam0n4 0 ) ( >= lam0n5 0 ) ( >= lam0n6 0 ) ( >= lam0n7 0 ) ( >= lam0n8 0 ) ( > ( + ( * 1 lam0n3 ) ( * 1 lam0n4 ) ( * 2 lam0n5 ) ( * 2 lam0n6 ) ( * 3 lam0n7 ) ( * Nl3CT1 lam0n8 ) ( - 1 ) ) 0 ) ( = ( + ( * ( - 1 ) lam0n0 ) ( * ( - 1 ) lam0n5 ) ( * Nl3__const_10^01 lam0n8 ) ) 0 ) ( = ( + ( * ( - 1 ) lam0n1 ) ( * 1 lam0n3 ) ( * Nl3__const_12^01 lam0n8 ) ) 0 ) ( = ( + ( * 1 lam0n1 ) ( * ( - 1 ) lam0n4 ) ( * ( - 1 ) lam0n5 ) ( * ( - 1 ) lam0n6 ) ( * ( - 1 ) lam0n7 ) ( * Nl3__const_30^01 lam0n8 ) ) 0 ) ( = ( + ( * 1 lam0n1 ) ( * Nl3__const_5^01 lam0n8 ) ) 0 ) ( = ( + ( * 1 lam0n2 ) ( * ( - 1 ) lam0n4 ) ( * 1 lam0n5 ) ( * 1 lam0n7 ) ( * Nl3a4^01 lam0n8 ) ) 0 ) ( = ( + ( * ( - 1 ) lam0n2 ) ( * Nl3b5^01 lam0n8 ) ) 0 ) ) ( and ( >= lam1n0 0 ) ( >= lam1n1 0 ) ( >= lam1n2 0 ) ( >= lam1n3 0 ) ( >= lam1n4 0 ) ( >= lam1n5 0 ) ( >= lam1n6 0 ) ( >= lam1n7 0 ) ( >= lam1n8 0 ) ( > ( + ( * 1 lam1n3 ) ( * 1 lam1n4 ) ( * 2 lam1n5 ) ( * 2 lam1n6 ) ( * 3 lam1n7 ) ( * Nl3CT1 lam1n8 ) ( - 1 ( + ( + Nl3CT1 ( * Nl3a4^01 2 ) ) ( * Nl3b5^01 0 ) ) ) ) 0 ) ( = ( + ( * ( - 1 ) lam1n0 ) ( * ( - 1 ) lam1n5 ) ( * Nl3__const_10^01 lam1n8 ) ( - ( + ( + 0 Nl3__const_10^01 ) ( * Nl3b5^01 ( - 1 ) ) ) ) ) 0 ) ( = ( + ( * ( - 1 ) lam1n1 ) ( * 1 lam1n3 ) ( * Nl3__const_12^01 lam1n8 ) ( - ( + 0 Nl3__const_12^01 ) ) ) 0 ) ( = ( + ( * 1 lam1n1 ) ( * ( - 1 ) lam1n4 ) ( * ( - 1 ) lam1n5 ) ( * ( - 1 ) lam1n6 ) ( * ( - 1 ) lam1n7 ) ( * Nl3__const_30^01 lam1n8 ) ( - ( + 0 Nl3__const_30^01 ) ) ) 0 ) ( = ( + ( * 1 lam1n1 ) ( * Nl3__const_5^01 lam1n8 ) ( - ( + 0 Nl3__const_5^01 ) ) ) 0 ) ( = ( + ( * 1 lam1n2 ) ( * ( - 1 ) lam1n4 ) ( * 1 lam1n5 ) ( * 1 lam1n7 ) ( * Nl3a4^01 lam1n8 ) ( - ( + 0 ( * Nl3a4^01 1 ) ) ) ) 0 ) ( = ( + ( * ( - 1 ) lam1n2 ) ( * Nl3b5^01 lam1n8 ) ( - ( + 0 ( * Nl3b5^01 1 ) ) ) ) 0 ) ) ))
(assert ( or ( and ( >= lam2n0 0 ) ( >= lam2n1 0 ) ( >= lam2n2 0 ) ( >= lam2n3 0 ) ( >= lam2n4 0 ) ( >= lam2n5 0 ) ( >= lam2n6 0 ) ( >= lam2n7 0 ) ( >= lam2n8 0 ) ( > ( + ( * 1 lam2n3 ) ( * 1 lam2n4 ) ( * 1 lam2n5 ) ( * 2 lam2n6 ) ( * 3 lam2n7 ) ( * Nl3CT1 lam2n8 ) ( - 1 ) ) 0 ) ( = ( + ( * ( - 1 ) lam2n0 ) ( * ( - 1 ) lam2n7 ) ( * Nl3__const_10^01 lam2n8 ) ) 0 ) ( = ( + ( * ( - 1 ) lam2n1 ) ( * 1 lam2n3 ) ( * Nl3__const_12^01 lam2n8 ) ) 0 ) ( = ( + ( * 1 lam2n1 ) ( * ( - 1 ) lam2n4 ) ( * ( - 1 ) lam2n6 ) ( * Nl3__const_30^01 lam2n8 ) ) 0 ) ( = ( + ( * 1 lam2n1 ) ( * ( - 1 ) lam2n2 ) ( * Nl3__const_5^01 lam2n8 ) ) 0 ) ( = ( + ( * ( - 1 ) lam2n4 ) ( * ( - 1 ) lam2n5 ) ( * Nl3a4^01 lam2n8 ) ) 0 ) ( = ( + ( * 1 lam2n2 ) ( * 1 lam2n5 ) ( * 1 lam2n7 ) ( * Nl3b5^01 lam2n8 ) ) 0 ) ) ( and ( >= lam3n0 0 ) ( >= lam3n1 0 ) ( >= lam3n2 0 ) ( >= lam3n3 0 ) ( >= lam3n4 0 ) ( >= lam3n5 0 ) ( >= lam3n6 0 ) ( >= lam3n7 0 ) ( >= lam3n8 0 ) ( > ( + ( * 1 lam3n3 ) ( * 1 lam3n4 ) ( * 1 lam3n5 ) ( * 2 lam3n6 ) ( * 3 lam3n7 ) ( * Nl3CT1 lam3n8 ) ( - 1 ( + ( + Nl3CT1 ( * Nl3a4^01 1 ) ) ( * Nl3b5^01 2 ) ) ) ) 0 ) ( = ( + ( * ( - 1 ) lam3n0 ) ( * ( - 1 ) lam3n7 ) ( * Nl3__const_10^01 lam3n8 ) ( - ( + 0 Nl3__const_10^01 ) ) ) 0 ) ( = ( + ( * ( - 1 ) lam3n1 ) ( * 1 lam3n3 ) ( * Nl3__const_12^01 lam3n8 ) ( - ( + 0 Nl3__const_12^01 ) ) ) 0 ) ( = ( + ( * 1 lam3n1 ) ( * ( - 1 ) lam3n4 ) ( * ( - 1 ) lam3n6 ) ( * Nl3__const_30^01 lam3n8 ) ( - ( + 0 Nl3__const_30^01 ) ) ) 0 ) ( = ( + ( * 1 lam3n1 ) ( * ( - 1 ) lam3n2 ) ( * Nl3__const_5^01 lam3n8 ) ( - ( + 0 Nl3__const_5^01 ) ) ) 0 ) ( = ( + ( * ( - 1 ) lam3n4 ) ( * ( - 1 ) lam3n5 ) ( * Nl3a4^01 lam3n8 ) ( - ( + 0 ( * Nl3a4^01 1 ) ) ) ) 0 ) ( = ( + ( * 1 lam3n2 ) ( * 1 lam3n5 ) ( * 1 lam3n7 ) ( * Nl3b5^01 lam3n8 ) ( - ( + 0 ( * Nl3b5^01 1 ) ) ) ) 0 ) ) ))
(assert ( or ( and ( >= lam4n0 0 ) ( >= lam4n1 0 ) ( >= lam4n2 0 ) ( >= lam4n3 0 ) ( >= lam4n4 0 ) ( >= lam4n5 0 ) ( >= lam4n6 0 ) ( >= lam4n7 0 ) ( >= lam4n8 0 ) ( > ( + ( * 1 lam4n2 ) ( * 1 lam4n3 ) ( * 1 lam4n4 ) ( * 1 lam4n5 ) ( * 1 lam4n6 ) ( * 2 lam4n7 ) ( * Nl3CT1 lam4n8 ) ( - 1 ) ) 0 ) ( = ( + ( * ( - 1 ) lam4n0 ) ( * ( - 1 ) lam4n2 ) ( * Nl3__const_10^01 lam4n8 ) ) 0 ) ( = ( + ( * ( - 1 ) lam4n1 ) ( * 1 lam4n3 ) ( * Nl3__const_12^01 lam4n8 ) ) 0 ) ( = ( + ( * 1 lam4n1 ) ( * ( - 1 ) lam4n4 ) ( * ( - 1 ) lam4n7 ) ( * Nl3__const_30^01 lam4n8 ) ) 0 ) ( = ( + ( * 1 lam4n1 ) ( * 1 lam4n5 ) ( * Nl3__const_5^01 lam4n8 ) ) 0 ) ( = ( + ( * ( - 1 ) lam4n4 ) ( * ( - 1 ) lam4n6 ) ( * Nl3a4^01 lam4n8 ) ) 0 ) ( = ( + ( * ( - 1 ) lam4n5 ) ( * 1 lam4n6 ) ( * Nl3b5^01 lam4n8 ) ) 0 ) ( = ( * 1 lam4n2 ) 0 ) ) ( and ( >= lam5n0 0 ) ( >= lam5n1 0 ) ( >= lam5n2 0 ) ( >= lam5n3 0 ) ( >= lam5n4 0 ) ( >= lam5n5 0 ) ( >= lam5n6 0 ) ( >= lam5n7 0 ) ( >= lam5n8 0 ) ( > ( + ( * 1 lam5n2 ) ( * 1 lam5n3 ) ( * 1 lam5n4 ) ( * 1 lam5n5 ) ( * 1 lam5n6 ) ( * 2 lam5n7 ) ( * Nl3CT1 lam5n8 ) ( - 1 ( + ( + Nl3CT1 ( * Nl3a4^01 1 ) ) ( * Nl3b5^01 0 ) ) ) ) 0 ) ( = ( + ( * ( - 1 ) lam5n0 ) ( * ( - 1 ) lam5n2 ) ( * Nl3__const_10^01 lam5n8 ) ( - ( + 0 Nl3__const_10^01 ) ) ) 0 ) ( = ( + ( * ( - 1 ) lam5n1 ) ( * 1 lam5n3 ) ( * Nl3__const_12^01 lam5n8 ) ( - ( + 0 Nl3__const_12^01 ) ) ) 0 ) ( = ( + ( * 1 lam5n1 ) ( * ( - 1 ) lam5n4 ) ( * ( - 1 ) lam5n7 ) ( * Nl3__const_30^01 lam5n8 ) ( - ( + 0 Nl3__const_30^01 ) ) ) 0 ) ( = ( + ( * 1 lam5n1 ) ( * 1 lam5n5 ) ( * Nl3__const_5^01 lam5n8 ) ( - ( + 0 Nl3__const_5^01 ) ) ) 0 ) ( = ( + ( * ( - 1 ) lam5n4 ) ( * ( - 1 ) lam5n6 ) ( * Nl3a4^01 lam5n8 ) ( - ( + 0 ( * Nl3a4^01 1 ) ) ) ) 0 ) ( = ( + ( * ( - 1 ) lam5n5 ) ( * 1 lam5n6 ) ( * Nl3b5^01 lam5n8 ) ) 0 ) ( = ( + ( * 1 lam5n2 ) ( - ( + 0 ( * Nl3b5^01 1 ) ) ) ) 0 ) ) ))
(assert ( or ( and ( >= lam6n0 0 ) ( >= lam6n1 0 ) ( >= lam6n2 0 ) ( >= lam6n3 0 ) ( >= lam6n4 0 ) ( >= lam6n5 0 ) ( >= lam6n6 0 ) ( >= lam6n7 0 ) ( >= lam6n8 0 ) ( >= lam6n9 0 ) ( > ( + ( * 1 lam6n3 ) ( * 1 lam6n4 ) ( * 1 lam6n5 ) ( * 1 lam6n6 ) ( * 1 lam6n7 ) ( * 2 lam6n8 ) ( * Nl3CT1 lam6n9 ) ( - 1 ) ) 0 ) ( = ( + ( * 1 lam6n0 ) ( * ( - 1 ) lam6n1 ) ( * Nl3__const_10^01 lam6n9 ) ) 0 ) ( = ( + ( * ( - 1 ) lam6n2 ) ( * 1 lam6n3 ) ( * 1 lam6n4 ) ( * Nl3__const_12^01 lam6n9 ) ) 0 ) ( = ( + ( * 1 lam6n2 ) ( * ( - 1 ) lam6n5 ) ( * ( - 1 ) lam6n8 ) ( * Nl3__const_30^01 lam6n9 ) ) 0 ) ( = ( + ( * 1 lam6n2 ) ( * 1 lam6n6 ) ( * Nl3__const_5^01 lam6n9 ) ) 0 ) ( = ( + ( * ( - 1 ) lam6n5 ) ( * ( - 1 ) lam6n7 ) ( * Nl3a4^01 lam6n9 ) ) 0 ) ( = ( + ( * ( - 1 ) lam6n6 ) ( * 1 lam6n7 ) ( * Nl3b5^01 lam6n9 ) ) 0 ) ( = ( + ( * ( - 1 ) lam6n0 ) ( * ( - 1 ) lam6n4 ) ) 0 ) ) ( and ( >= lam7n0 0 ) ( >= lam7n1 0 ) ( >= lam7n2 0 ) ( >= lam7n3 0 ) ( >= lam7n4 0 ) ( >= lam7n5 0 ) ( >= lam7n6 0 ) ( >= lam7n7 0 ) ( >= lam7n8 0 ) ( >= lam7n9 0 ) ( > ( + ( * 1 lam7n3 ) ( * 1 lam7n4 ) ( * 1 lam7n5 ) ( * 1 lam7n6 ) ( * 1 lam7n7 ) ( * 2 lam7n8 ) ( * Nl3CT1 lam7n9 ) ( - 1 ( + ( + Nl3CT1 ( * Nl3a4^01 1 ) ) ( * Nl3b5^01 0 ) ) ) ) 0 ) ( = ( + ( * 1 lam7n0 ) ( * ( - 1 ) lam7n1 ) ( * Nl3__const_10^01 lam7n9 ) ( - ( + 0 Nl3__const_10^01 ) ) ) 0 ) ( = ( + ( * ( - 1 ) lam7n2 ) ( * 1 lam7n3 ) ( * 1 lam7n4 ) ( * Nl3__const_12^01 lam7n9 ) ( - ( + 0 Nl3__const_12^01 ) ) ) 0 ) ( = ( + ( * 1 lam7n2 ) ( * ( - 1 ) lam7n5 ) ( * ( - 1 ) lam7n8 ) ( * Nl3__const_30^01 lam7n9 ) ( - ( + 0 Nl3__const_30^01 ) ) ) 0 ) ( = ( + ( * 1 lam7n2 ) ( * 1 lam7n6 ) ( * Nl3__const_5^01 lam7n9 ) ( - ( + 0 Nl3__const_5^01 ) ) ) 0 ) ( = ( + ( * ( - 1 ) lam7n5 ) ( * ( - 1 ) lam7n7 ) ( * Nl3a4^01 lam7n9 ) ( - ( + 0 ( * Nl3a4^01 1 ) ) ) ) 0 ) ( = ( + ( * ( - 1 ) lam7n6 ) ( * 1 lam7n7 ) ( * Nl3b5^01 lam7n9 ) ) 0 ) ( = ( + ( * ( - 1 ) lam7n0 ) ( * ( - 1 ) lam7n4 ) ( - ( + 0 ( * Nl3b5^01 1 ) ) ) ) 0 ) ) ))
(assert ( or ( and ( <= ( * ( - 1 ) __const_10^0 ) 0 ) ( <= ( + 1 __const_12^0 ) 0 ) ( <= ( + 1 ( * ( - 1 ) __const_30^0 ) undef126 ) 0 ) ( not ( <= ( + ( - 1 ) __const_10^0 __const_30^0 ( * ( - 1 ) a4^0 ) ) 0 ) ) ( not ( <= ( + ( - 1 ) __const_30^0 ( * ( - 1 ) a4^0 ) ) 0 ) ) ( = ( + a4^0 ( * ( - 1 ) undef126 ) ) 0 ) ( = ( + b5^0 ( * ( - 1 ) undef129 ) ) 0 ) ( = ( + ( - 1 ) undef126 ) 0 ) ( = ( + ( - 1 ) undef129 ) 0 ) ( <= ( + Nl3CT1 ( * ( + 0 Nl3__const_10^01 ) __const_10^0 ) ( * ( + 0 Nl3__const_12^01 ) __const_12^0 ) ( * ( + 0 Nl3__const_30^01 ) __const_30^0 ) ( * ( + 0 Nl3__const_5^01 ) __const_5^0 ) ( * ( + 0 Nl3a4^01 ) a4^0 ) ( * ( + 0 Nl3b5^01 ) b5^0 ) ) 0 ) ( <= ( * ( - 1 ) __const_10^0 ) 0 ) ( <= ( + 1 __const_12^0 ) 0 ) ( <= ( + 2 ( * ( - 1 ) __const_30^0 ) ) 0 ) ( <= ( + ( * ( - 1 ) __const_12^0 ) __const_30^0 __const_5^0 ) 0 ) ( <= ( + 1 ( * ( - 1 ) __const_30^0 ) ( * ( - 1 ) a4^0 ) ) 0 ) ) ( and ( <= ( * ( - 1 ) __const_10^0 ) 0 ) ( not ( <= ( + 1 __const_12^0 ) 0 ) ) ( <= ( + 1 ( * ( - 1 ) __const_30^0 ) undef126 ) 0 ) ( = ( + a4^0 ( * ( - 1 ) undef126 ) ) 0 ) ( = ( + b5^0 ( * ( - 1 ) undef129 ) ) 0 ) ( = ( + ( - 1 ) undef126 ) 0 ) ( = ( + ( - 1 ) undef129 ) 0 ) ( <= ( + Nl3CT1 ( * ( + 0 Nl3__const_10^01 ) __const_10^0 ) ( * ( + 0 Nl3__const_12^01 ) __const_12^0 ) ( * ( + 0 Nl3__const_30^01 ) __const_30^0 ) ( * ( + 0 Nl3__const_5^01 ) __const_5^0 ) ( * ( + 0 Nl3a4^01 ) a4^0 ) ( * ( + 0 Nl3b5^01 ) b5^0 ) ) 0 ) ( <= ( * ( - 1 ) __const_10^0 ) 0 ) ( <= ( + 1 __const_12^0 ) 0 ) ( <= ( + 2 ( * ( - 1 ) __const_30^0 ) ) 0 ) ( <= ( + ( * ( - 1 ) __const_12^0 ) __const_30^0 __const_5^0 ) 0 ) ( <= ( + 1 ( * ( - 1 ) __const_30^0 ) ( * ( - 1 ) a4^0 ) ) 0 ) ) ( and ( not ( <= ( * ( - 1 ) __const_10^0 ) 0 ) ) ( <= ( + 1 ( * ( - 1 ) __const_30^0 ) undef126 ) 0 ) ( = ( + a4^0 ( * ( - 1 ) undef126 ) ) 0 ) ( = ( + b5^0 ( * ( - 1 ) undef129 ) ) 0 ) ( = ( + ( - 1 ) undef126 ) 0 ) ( = ( + ( - 1 ) undef129 ) 0 ) ( <= ( + Nl3CT1 ( * ( + 0 Nl3__const_10^01 ) __const_10^0 ) ( * ( + 0 Nl3__const_12^01 ) __const_12^0 ) ( * ( + 0 Nl3__const_30^01 ) __const_30^0 ) ( * ( + 0 Nl3__const_5^01 ) __const_5^0 ) ( * ( + 0 Nl3a4^01 ) a4^0 ) ( * ( + 0 Nl3b5^01 ) b5^0 ) ) 0 ) ( <= ( * ( - 1 ) __const_10^0 ) 0 ) ( <= ( + 1 __const_12^0 ) 0 ) ( <= ( + 2 ( * ( - 1 ) __const_30^0 ) ) 0 ) ( <= ( + ( * ( - 1 ) __const_12^0 ) __const_30^0 __const_5^0 ) 0 ) ( <= ( + 1 ( * ( - 1 ) __const_30^0 ) ( * ( - 1 ) a4^0 ) ) 0 ) ) ))
(assert ( or ( and ( and ( and ( >= lam14n0 0 ) ( >= lam14n1 0 ) ( >= lam14n2 0 ) ( >= lam14n3 0 ) ( >= lam14n4 0 ) ( >= lam14n5 0 ) ( >= lam14n6 0 ) ( >= lam14n7 0 ) ( >= lam14n8 0 ) ( >= lam14n9 0 ) ( > ( + ( * 1 lam14n3 ) ( * 1 lam14n4 ) ( * 1 lam14n5 ) ( * 2 lam14n6 ) ( * 3 lam14n7 ) ( * 50001 lam14n8 ) ( * Nl3CT1 lam14n9 ) ( - 1 ( - ( + ( + RFN1_CT ( * RFN1_a4^0 1 ) ) ( * RFN1_b5^0 2 ) ) RFN1_CT ) ) ) 0 ) ( = ( + ( * ( - 1 ) lam14n0 ) ( * ( - 1 ) lam14n7 ) ( * Nl3__const_10^01 lam14n9 ) ( - ( - ( + 0 RFN1___const_10^0 ) RFN1___const_10^0 ) ) ) 0 ) ( = ( + ( * ( - 1 ) lam14n1 ) ( * 1 lam14n3 ) ( * 1 lam14n8 ) ( * Nl3__const_12^01 lam14n9 ) ( - ( - ( + 0 RFN1___const_12^0 ) RFN1___const_12^0 ) ) ) 0 ) ( = ( + ( * 1 lam14n1 ) ( * ( - 1 ) lam14n4 ) ( * ( - 1 ) lam14n6 ) ( * Nl3__const_30^01 lam14n9 ) ) 0 ) ( = ( + ( * 1 lam14n1 ) ( * ( - 1 ) lam14n2 ) ( * Nl3__const_5^01 lam14n9 ) ( - ( - ( + 0 RFN1___const_5^0 ) RFN1___const_5^0 ) ) ) 0 ) ( = ( + ( * ( - 1 ) lam14n4 ) ( * ( - 1 ) lam14n5 ) ( * ( - 1 ) lam14n8 ) ( * Nl3a4^01 lam14n9 ) ( - ( - ( + 0 ( * RFN1_a4^0 1 ) ) RFN1_a4^0 ) ) ) 0 ) ( = ( + ( * 1 lam14n2 ) ( * 1 lam14n5 ) ( * 1 lam14n7 ) ( * Nl3b5^01 lam14n9 ) ( - ( - ( + 0 ( * RFN1_b5^0 1 ) ) RFN1_b5^0 ) ) ) 0 ) ) ( and ( >= lam18n0 0 ) ( >= lam18n1 0 ) ( >= lam18n2 0 ) ( >= lam18n3 0 ) ( >= lam18n4 0 ) ( >= lam18n5 0 ) ( >= lam18n6 0 ) ( >= lam18n7 0 ) ( >= lam18n8 0 ) ( >= lam18n9 0 ) ( > ( + ( * 1 lam18n2 ) ( * 1 lam18n3 ) ( * 1 lam18n4 ) ( * 1 lam18n5 ) ( * 1 lam18n6 ) ( * 2 lam18n7 ) ( * 50001 lam18n8 ) ( * Nl3CT1 lam18n9 ) ( - 1 ( - ( + ( + RFN1_CT ( * RFN1_a4^0 1 ) ) ( * RFN1_b5^0 0 ) ) RFN1_CT ) ) ) 0 ) ( = ( + ( * ( - 1 ) lam18n0 ) ( * ( - 1 ) lam18n2 ) ( * Nl3__const_10^01 lam18n9 ) ( - ( - ( + 0 RFN1___const_10^0 ) RFN1___const_10^0 ) ) ) 0 ) ( = ( + ( * ( - 1 ) lam18n1 ) ( * 1 lam18n3 ) ( * 1 lam18n8 ) ( * Nl3__const_12^01 lam18n9 ) ( - ( - ( + 0 RFN1___const_12^0 ) RFN1___const_12^0 ) ) ) 0 ) ( = ( + ( * 1 lam18n1 ) ( * ( - 1 ) lam18n4 ) ( * ( - 1 ) lam18n7 ) ( * Nl3__const_30^01 lam18n9 ) ) 0 ) ( = ( + ( * 1 lam18n1 ) ( * 1 lam18n5 ) ( * Nl3__const_5^01 lam18n9 ) ( - ( - ( + 0 RFN1___const_5^0 ) RFN1___const_5^0 ) ) ) 0 ) ( = ( + ( * ( - 1 ) lam18n4 ) ( * ( - 1 ) lam18n6 ) ( * ( - 1 ) lam18n8 ) ( * Nl3a4^01 lam18n9 ) ( - ( - ( + 0 ( * RFN1_a4^0 1 ) ) RFN1_a4^0 ) ) ) 0 ) ( = ( + ( * ( - 1 ) lam18n5 ) ( * 1 lam18n6 ) ( * Nl3b5^01 lam18n9 ) ( - ( - RFN1_b5^0 ) ) ) 0 ) ( = ( + ( * 1 lam18n2 ) ( - ( + 0 ( * RFN1_b5^0 1 ) ) ) ) 0 ) ) ( and ( >= lam22n0 0 ) ( >= lam22n1 0 ) ( >= lam22n2 0 ) ( >= lam22n3 0 ) ( >= lam22n4 0 ) ( >= lam22n5 0 ) ( >= lam22n6 0 ) ( >= lam22n7 0 ) ( >= lam22n8 0 ) ( >= lam22n9 0 ) ( >= lam22n10 0 ) ( > ( + ( * 1 lam22n3 ) ( * 1 lam22n4 ) ( * 1 lam22n5 ) ( * 1 lam22n6 ) ( * 1 lam22n7 ) ( * 2 lam22n8 ) ( * 50001 lam22n9 ) ( * Nl3CT1 lam22n10 ) ( - 1 ( - ( + ( + RFN1_CT ( * RFN1_a4^0 1 ) ) ( * RFN1_b5^0 0 ) ) RFN1_CT ) ) ) 0 ) ( = ( + ( * 1 lam22n0 ) ( * ( - 1 ) lam22n1 ) ( * Nl3__const_10^01 lam22n10 ) ( - ( - ( + 0 RFN1___const_10^0 ) RFN1___const_10^0 ) ) ) 0 ) ( = ( + ( * ( - 1 ) lam22n2 ) ( * 1 lam22n3 ) ( * 1 lam22n4 ) ( * 1 lam22n9 ) ( * Nl3__const_12^01 lam22n10 ) ( - ( - ( + 0 RFN1___const_12^0 ) RFN1___const_12^0 ) ) ) 0 ) ( = ( + ( * 1 lam22n2 ) ( * ( - 1 ) lam22n5 ) ( * ( - 1 ) lam22n8 ) ( * Nl3__const_30^01 lam22n10 ) ) 0 ) ( = ( + ( * 1 lam22n2 ) ( * 1 lam22n6 ) ( * Nl3__const_5^01 lam22n10 ) ( - ( - ( + 0 RFN1___const_5^0 ) RFN1___const_5^0 ) ) ) 0 ) ( = ( + ( * ( - 1 ) lam22n5 ) ( * ( - 1 ) lam22n7 ) ( * ( - 1 ) lam22n9 ) ( * Nl3a4^01 lam22n10 ) ( - ( - ( + 0 ( * RFN1_a4^0 1 ) ) RFN1_a4^0 ) ) ) 0 ) ( = ( + ( * ( - 1 ) lam22n6 ) ( * 1 lam22n7 ) ( * Nl3b5^01 lam22n10 ) ( - ( - RFN1_b5^0 ) ) ) 0 ) ( = ( + ( * ( - 1 ) lam22n0 ) ( * ( - 1 ) lam22n4 ) ( - ( + 0 ( * RFN1_b5^0 1 ) ) ) ) 0 ) ) ) ( or ( and ( and ( >= lam12n0 0 ) ( >= lam12n1 0 ) ( >= lam12n2 0 ) ( >= lam12n3 0 ) ( >= lam12n4 0 ) ( >= lam12n5 0 ) ( >= lam12n6 0 ) ( >= lam12n7 0 ) ( >= lam12n8 0 ) ( >= lam12n9 0 ) ( > ( + ( * 1 lam12n3 ) ( * 1 lam12n4 ) ( * 1 lam12n5 ) ( * 2 lam12n6 ) ( * 3 lam12n7 ) ( * 50001 lam12n8 ) ( * Nl3CT1 lam12n9 ) ( - 1 ( - RFN1_CT ) ) ) 0 ) ( = ( + ( * ( - 1 ) lam12n0 ) ( * ( - 1 ) lam12n7 ) ( * Nl3__const_10^01 lam12n9 ) ( - ( - RFN1___const_10^0 ) ) ) 0 ) ( = ( + ( * ( - 1 ) lam12n1 ) ( * 1 lam12n3 ) ( * 1 lam12n8 ) ( * Nl3__const_12^01 lam12n9 ) ( - ( - RFN1___const_12^0 ) ) ) 0 ) ( = ( + ( * 1 lam12n1 ) ( * ( - 1 ) lam12n4 ) ( * ( - 1 ) lam12n6 ) ( * Nl3__const_30^01 lam12n9 ) ) 0 ) ( = ( + ( * 1 lam12n1 ) ( * ( - 1 ) lam12n2 ) ( * Nl3__const_5^01 lam12n9 ) ( - ( - RFN1___const_5^0 ) ) ) 0 ) ( = ( + ( * ( - 1 ) lam12n4 ) ( * ( - 1 ) lam12n5 ) ( * ( - 1 ) lam12n8 ) ( * Nl3a4^01 lam12n9 ) ( - ( - RFN1_a4^0 ) ) ) 0 ) ( = ( + ( * 1 lam12n2 ) ( * 1 lam12n5 ) ( * 1 lam12n7 ) ( * Nl3b5^01 lam12n9 ) ( - ( - RFN1_b5^0 ) ) ) 0 ) ) ( and ( >= lam13n0 0 ) ( >= lam13n1 0 ) ( >= lam13n2 0 ) ( >= lam13n3 0 ) ( >= lam13n4 0 ) ( >= lam13n5 0 ) ( >= lam13n6 0 ) ( >= lam13n7 0 ) ( >= lam13n8 0 ) ( >= lam13n9 0 ) ( > ( + ( * 1 lam13n3 ) ( * 1 lam13n4 ) ( * 1 lam13n5 ) ( * 2 lam13n6 ) ( * 3 lam13n7 ) ( * 50001 lam13n8 ) ( * Nl3CT1 lam13n9 ) ( - 1 ( + ( - ( + ( + RFN1_CT ( * RFN1_a4^0 1 ) ) ( * RFN1_b5^0 2 ) ) RFN1_CT ) 1 ) ) ) 0 ) ( = ( + ( * ( - 1 ) lam13n0 ) ( * ( - 1 ) lam13n7 ) ( * Nl3__const_10^01 lam13n9 ) ( - ( - ( + 0 RFN1___const_10^0 ) RFN1___const_10^0 ) ) ) 0 ) ( = ( + ( * ( - 1 ) lam13n1 ) ( * 1 lam13n3 ) ( * 1 lam13n8 ) ( * Nl3__const_12^01 lam13n9 ) ( - ( - ( + 0 RFN1___const_12^0 ) RFN1___const_12^0 ) ) ) 0 ) ( = ( + ( * 1 lam13n1 ) ( * ( - 1 ) lam13n4 ) ( * ( - 1 ) lam13n6 ) ( * Nl3__const_30^01 lam13n9 ) ) 0 ) ( = ( + ( * 1 lam13n1 ) ( * ( - 1 ) lam13n2 ) ( * Nl3__const_5^01 lam13n9 ) ( - ( - ( + 0 RFN1___const_5^0 ) RFN1___const_5^0 ) ) ) 0 ) ( = ( + ( * ( - 1 ) lam13n4 ) ( * ( - 1 ) lam13n5 ) ( * ( - 1 ) lam13n8 ) ( * Nl3a4^01 lam13n9 ) ( - ( - ( + 0 ( * RFN1_a4^0 1 ) ) RFN1_a4^0 ) ) ) 0 ) ( = ( + ( * 1 lam13n2 ) ( * 1 lam13n5 ) ( * 1 lam13n7 ) ( * Nl3b5^01 lam13n9 ) ( - ( - ( + 0 ( * RFN1_b5^0 1 ) ) RFN1_b5^0 ) ) ) 0 ) ) ) ( and ( and ( >= lam16n0 0 ) ( >= lam16n1 0 ) ( >= lam16n2 0 ) ( >= lam16n3 0 ) ( >= lam16n4 0 ) ( >= lam16n5 0 ) ( >= lam16n6 0 ) ( >= lam16n7 0 ) ( >= lam16n8 0 ) ( >= lam16n9 0 ) ( > ( + ( * 1 lam16n2 ) ( * 1 lam16n3 ) ( * 1 lam16n4 ) ( * 1 lam16n5 ) ( * 1 lam16n6 ) ( * 2 lam16n7 ) ( * 50001 lam16n8 ) ( * Nl3CT1 lam16n9 ) ( - 1 ( - RFN1_CT ) ) ) 0 ) ( = ( + ( * ( - 1 ) lam16n0 ) ( * ( - 1 ) lam16n2 ) ( * Nl3__const_10^01 lam16n9 ) ( - ( - RFN1___const_10^0 ) ) ) 0 ) ( = ( + ( * ( - 1 ) lam16n1 ) ( * 1 lam16n3 ) ( * 1 lam16n8 ) ( * Nl3__const_12^01 lam16n9 ) ( - ( - RFN1___const_12^0 ) ) ) 0 ) ( = ( + ( * 1 lam16n1 ) ( * ( - 1 ) lam16n4 ) ( * ( - 1 ) lam16n7 ) ( * Nl3__const_30^01 lam16n9 ) ) 0 ) ( = ( + ( * 1 lam16n1 ) ( * 1 lam16n5 ) ( * Nl3__const_5^01 lam16n9 ) ( - ( - RFN1___const_5^0 ) ) ) 0 ) ( = ( + ( * ( - 1 ) lam16n4 ) ( * ( - 1 ) lam16n6 ) ( * ( - 1 ) lam16n8 ) ( * Nl3a4^01 lam16n9 ) ( - ( - RFN1_a4^0 ) ) ) 0 ) ( = ( + ( * ( - 1 ) lam16n5 ) ( * 1 lam16n6 ) ( * Nl3b5^01 lam16n9 ) ( - ( - RFN1_b5^0 ) ) ) 0 ) ( = ( * 1 lam16n2 ) 0 ) ) ( and ( >= lam17n0 0 ) ( >= lam17n1 0 ) ( >= lam17n2 0 ) ( >= lam17n3 0 ) ( >= lam17n4 0 ) ( >= lam17n5 0 ) ( >= lam17n6 0 ) ( >= lam17n7 0 ) ( >= lam17n8 0 ) ( >= lam17n9 0 ) ( > ( + ( * 1 lam17n2 ) ( * 1 lam17n3 ) ( * 1 lam17n4 ) ( * 1 lam17n5 ) ( * 1 lam17n6 ) ( * 2 lam17n7 ) ( * 50001 lam17n8 ) ( * Nl3CT1 lam17n9 ) ( - 1 ( + ( - ( + ( + RFN1_CT ( * RFN1_a4^0 1 ) ) ( * RFN1_b5^0 0 ) ) RFN1_CT ) 1 ) ) ) 0 ) ( = ( + ( * ( - 1 ) lam17n0 ) ( * ( - 1 ) lam17n2 ) ( * Nl3__const_10^01 lam17n9 ) ( - ( - ( + 0 RFN1___const_10^0 ) RFN1___const_10^0 ) ) ) 0 ) ( = ( + ( * ( - 1 ) lam17n1 ) ( * 1 lam17n3 ) ( * 1 lam17n8 ) ( * Nl3__const_12^01 lam17n9 ) ( - ( - ( + 0 RFN1___const_12^0 ) RFN1___const_12^0 ) ) ) 0 ) ( = ( + ( * 1 lam17n1 ) ( * ( - 1 ) lam17n4 ) ( * ( - 1 ) lam17n7 ) ( * Nl3__const_30^01 lam17n9 ) ) 0 ) ( = ( + ( * 1 lam17n1 ) ( * 1 lam17n5 ) ( * Nl3__const_5^01 lam17n9 ) ( - ( - ( + 0 RFN1___const_5^0 ) RFN1___const_5^0 ) ) ) 0 ) ( = ( + ( * ( - 1 ) lam17n4 ) ( * ( - 1 ) lam17n6 ) ( * ( - 1 ) lam17n8 ) ( * Nl3a4^01 lam17n9 ) ( - ( - ( + 0 ( * RFN1_a4^0 1 ) ) RFN1_a4^0 ) ) ) 0 ) ( = ( + ( * ( - 1 ) lam17n5 ) ( * 1 lam17n6 ) ( * Nl3b5^01 lam17n9 ) ( - ( - RFN1_b5^0 ) ) ) 0 ) ( = ( + ( * 1 lam17n2 ) ( - ( + 0 ( * RFN1_b5^0 1 ) ) ) ) 0 ) ) ) ( and ( and ( >= lam20n0 0 ) ( >= lam20n1 0 ) ( >= lam20n2 0 ) ( >= lam20n3 0 ) ( >= lam20n4 0 ) ( >= lam20n5 0 ) ( >= lam20n6 0 ) ( >= lam20n7 0 ) ( >= lam20n8 0 ) ( >= lam20n9 0 ) ( >= lam20n10 0 ) ( > ( + ( * 1 lam20n3 ) ( * 1 lam20n4 ) ( * 1 lam20n5 ) ( * 1 lam20n6 ) ( * 1 lam20n7 ) ( * 2 lam20n8 ) ( * 50001 lam20n9 ) ( * Nl3CT1 lam20n10 ) ( - 1 ( - RFN1_CT ) ) ) 0 ) ( = ( + ( * 1 lam20n0 ) ( * ( - 1 ) lam20n1 ) ( * Nl3__const_10^01 lam20n10 ) ( - ( - RFN1___const_10^0 ) ) ) 0 ) ( = ( + ( * ( - 1 ) lam20n2 ) ( * 1 lam20n3 ) ( * 1 lam20n4 ) ( * 1 lam20n9 ) ( * Nl3__const_12^01 lam20n10 ) ( - ( - RFN1___const_12^0 ) ) ) 0 ) ( = ( + ( * 1 lam20n2 ) ( * ( - 1 ) lam20n5 ) ( * ( - 1 ) lam20n8 ) ( * Nl3__const_30^01 lam20n10 ) ) 0 ) ( = ( + ( * 1 lam20n2 ) ( * 1 lam20n6 ) ( * Nl3__const_5^01 lam20n10 ) ( - ( - RFN1___const_5^0 ) ) ) 0 ) ( = ( + ( * ( - 1 ) lam20n5 ) ( * ( - 1 ) lam20n7 ) ( * ( - 1 ) lam20n9 ) ( * Nl3a4^01 lam20n10 ) ( - ( - RFN1_a4^0 ) ) ) 0 ) ( = ( + ( * ( - 1 ) lam20n6 ) ( * 1 lam20n7 ) ( * Nl3b5^01 lam20n10 ) ( - ( - RFN1_b5^0 ) ) ) 0 ) ( = ( + ( * ( - 1 ) lam20n0 ) ( * ( - 1 ) lam20n4 ) ) 0 ) ) ( and ( >= lam21n0 0 ) ( >= lam21n1 0 ) ( >= lam21n2 0 ) ( >= lam21n3 0 ) ( >= lam21n4 0 ) ( >= lam21n5 0 ) ( >= lam21n6 0 ) ( >= lam21n7 0 ) ( >= lam21n8 0 ) ( >= lam21n9 0 ) ( >= lam21n10 0 ) ( > ( + ( * 1 lam21n3 ) ( * 1 lam21n4 ) ( * 1 lam21n5 ) ( * 1 lam21n6 ) ( * 1 lam21n7 ) ( * 2 lam21n8 ) ( * 50001 lam21n9 ) ( * Nl3CT1 lam21n10 ) ( - 1 ( + ( - ( + ( + RFN1_CT ( * RFN1_a4^0 1 ) ) ( * RFN1_b5^0 0 ) ) RFN1_CT ) 1 ) ) ) 0 ) ( = ( + ( * 1 lam21n0 ) ( * ( - 1 ) lam21n1 ) ( * Nl3__const_10^01 lam21n10 ) ( - ( - ( + 0 RFN1___const_10^0 ) RFN1___const_10^0 ) ) ) 0 ) ( = ( + ( * ( - 1 ) lam21n2 ) ( * 1 lam21n3 ) ( * 1 lam21n4 ) ( * 1 lam21n9 ) ( * Nl3__const_12^01 lam21n10 ) ( - ( - ( + 0 RFN1___const_12^0 ) RFN1___const_12^0 ) ) ) 0 ) ( = ( + ( * 1 lam21n2 ) ( * ( - 1 ) lam21n5 ) ( * ( - 1 ) lam21n8 ) ( * Nl3__const_30^01 lam21n10 ) ) 0 ) ( = ( + ( * 1 lam21n2 ) ( * 1 lam21n6 ) ( * Nl3__const_5^01 lam21n10 ) ( - ( - ( + 0 RFN1___const_5^0 ) RFN1___const_5^0 ) ) ) 0 ) ( = ( + ( * ( - 1 ) lam21n5 ) ( * ( - 1 ) lam21n7 ) ( * ( - 1 ) lam21n9 ) ( * Nl3a4^01 lam21n10 ) ( - ( - ( + 0 ( * RFN1_a4^0 1 ) ) RFN1_a4^0 ) ) ) 0 ) ( = ( + ( * ( - 1 ) lam21n6 ) ( * 1 lam21n7 ) ( * Nl3b5^01 lam21n10 ) ( - ( - RFN1_b5^0 ) ) ) 0 ) ( = ( + ( * ( - 1 ) lam21n0 ) ( * ( - 1 ) lam21n4 ) ( - ( + 0 ( * RFN1_b5^0 1 ) ) ) ) 0 ) ) ) ) ) ( or ( and ( >= lam11n0 0 ) ( >= lam11n1 0 ) ( >= lam11n2 0 ) ( >= lam11n3 0 ) ( >= lam11n4 0 ) ( >= lam11n5 0 ) ( >= lam11n6 0 ) ( >= lam11n7 0 ) ( >= lam11n8 0 ) ( >= lam11n9 0 ) ( > ( + ( * 1 lam11n3 ) ( * 1 lam11n4 ) ( * 1 lam11n5 ) ( * 2 lam11n6 ) ( * 3 lam11n7 ) ( * 50001 lam11n8 ) ( * Nl3CT1 lam11n9 ) ( - 1 ) ) 0 ) ( = ( + ( * ( - 1 ) lam11n0 ) ( * ( - 1 ) lam11n7 ) ( * Nl3__const_10^01 lam11n9 ) ) 0 ) ( = ( + ( * ( - 1 ) lam11n1 ) ( * 1 lam11n3 ) ( * 1 lam11n8 ) ( * Nl3__const_12^01 lam11n9 ) ) 0 ) ( = ( + ( * 1 lam11n1 ) ( * ( - 1 ) lam11n4 ) ( * ( - 1 ) lam11n6 ) ( * Nl3__const_30^01 lam11n9 ) ) 0 ) ( = ( + ( * 1 lam11n1 ) ( * ( - 1 ) lam11n2 ) ( * Nl3__const_5^01 lam11n9 ) ) 0 ) ( = ( + ( * ( - 1 ) lam11n4 ) ( * ( - 1 ) lam11n5 ) ( * ( - 1 ) lam11n8 ) ( * Nl3a4^01 lam11n9 ) ) 0 ) ( = ( + ( * 1 lam11n2 ) ( * 1 lam11n5 ) ( * 1 lam11n7 ) ( * Nl3b5^01 lam11n9 ) ) 0 ) ) ( and ( >= lam15n0 0 ) ( >= lam15n1 0 ) ( >= lam15n2 0 ) ( >= lam15n3 0 ) ( >= lam15n4 0 ) ( >= lam15n5 0 ) ( >= lam15n6 0 ) ( >= lam15n7 0 ) ( >= lam15n8 0 ) ( >= lam15n9 0 ) ( > ( + ( * 1 lam15n2 ) ( * 1 lam15n3 ) ( * 1 lam15n4 ) ( * 1 lam15n5 ) ( * 1 lam15n6 ) ( * 2 lam15n7 ) ( * 50001 lam15n8 ) ( * Nl3CT1 lam15n9 ) ( - 1 ) ) 0 ) ( = ( + ( * ( - 1 ) lam15n0 ) ( * ( - 1 ) lam15n2 ) ( * Nl3__const_10^01 lam15n9 ) ) 0 ) ( = ( + ( * ( - 1 ) lam15n1 ) ( * 1 lam15n3 ) ( * 1 lam15n8 ) ( * Nl3__const_12^01 lam15n9 ) ) 0 ) ( = ( + ( * 1 lam15n1 ) ( * ( - 1 ) lam15n4 ) ( * ( - 1 ) lam15n7 ) ( * Nl3__const_30^01 lam15n9 ) ) 0 ) ( = ( + ( * 1 lam15n1 ) ( * 1 lam15n5 ) ( * Nl3__const_5^01 lam15n9 ) ) 0 ) ( = ( + ( * ( - 1 ) lam15n4 ) ( * ( - 1 ) lam15n6 ) ( * ( - 1 ) lam15n8 ) ( * Nl3a4^01 lam15n9 ) ) 0 ) ( = ( + ( * ( - 1 ) lam15n5 ) ( * 1 lam15n6 ) ( * Nl3b5^01 lam15n9 ) ) 0 ) ( = ( * 1 lam15n2 ) 0 ) ) ( and ( >= lam19n0 0 ) ( >= lam19n1 0 ) ( >= lam19n2 0 ) ( >= lam19n3 0 ) ( >= lam19n4 0 ) ( >= lam19n5 0 ) ( >= lam19n6 0 ) ( >= lam19n7 0 ) ( >= lam19n8 0 ) ( >= lam19n9 0 ) ( >= lam19n10 0 ) ( > ( + ( * 1 lam19n3 ) ( * 1 lam19n4 ) ( * 1 lam19n5 ) ( * 1 lam19n6 ) ( * 1 lam19n7 ) ( * 2 lam19n8 ) ( * 50001 lam19n9 ) ( * Nl3CT1 lam19n10 ) ( - 1 ) ) 0 ) ( = ( + ( * 1 lam19n0 ) ( * ( - 1 ) lam19n1 ) ( * Nl3__const_10^01 lam19n10 ) ) 0 ) ( = ( + ( * ( - 1 ) lam19n2 ) ( * 1 lam19n3 ) ( * 1 lam19n4 ) ( * 1 lam19n9 ) ( * Nl3__const_12^01 lam19n10 ) ) 0 ) ( = ( + ( * 1 lam19n2 ) ( * ( - 1 ) lam19n5 ) ( * ( - 1 ) lam19n8 ) ( * Nl3__const_30^01 lam19n10 ) ) 0 ) ( = ( + ( * 1 lam19n2 ) ( * 1 lam19n6 ) ( * Nl3__const_5^01 lam19n10 ) ) 0 ) ( = ( + ( * ( - 1 ) lam19n5 ) ( * ( - 1 ) lam19n7 ) ( * ( - 1 ) lam19n9 ) ( * Nl3a4^01 lam19n10 ) ) 0 ) ( = ( + ( * ( - 1 ) lam19n6 ) ( * 1 lam19n7 ) ( * Nl3b5^01 lam19n10 ) ) 0 ) ( = ( + ( * ( - 1 ) lam19n0 ) ( * ( - 1 ) lam19n4 ) ) 0 ) ) ) ))
(check-sat)
(exit)
